data/solutions/recovery/wellformed/intermediate/binding/wellformed_intermediate_instance41/9.sol
Elapsed time: 100.45
Upper bound: 263112.0
Planning weighted value: 1028241009.0
C[0]=263112.0
C[1]=263097.0
C[2]=263091.0
C[3]=263088.0
C[4]=263085.0
C[5]=263082.0
C[6]=263070.0
C[7]=263051.0
C[8]=263051.0
C[9]=262982.0
C[10]=262660.0
C[11]=0.0
y[0]=3
y[1]=3
y[2]=9
y[3]=7
y[4]=0
y[5]=8
y[6]=8
y[7]=3
y[8]=4
y[9]=5
y[10]=3
y[11]=5
y[12]=2
y[13]=1
y[14]=8
y[15]=3
y[16]=4
y[17]=10
y[18]=0
y[19]=2
y[20]=6
y[21]=7
y[22]=3
y[23]=2
y[24]=4
y[25]=10
y[26]=10
y[27]=9
y[28]=1
y[29]=6
y[30]=0
y[31]=3
y[32]=5
y[33]=2
y[34]=0
y[35]=9
y[36]=3
y[37]=7
y[38]=2
y[39]=9
y[40]=1
y[41]=2
y[42]=5
y[43]=6
y[44]=3
y[45]=7
y[46]=0
y[47]=0
y[48]=8
y[49]=1
y[50]=8
y[51]=0
y[52]=4
y[53]=7
y[54]=1
y[55]=6
y[56]=10
y[57]=6
y[58]=6
y[59]=6
y[60]=0
y[61]=5
y[62]=0
y[63]=3
y[64]=3
y[65]=2
y[66]=0
y[67]=8
y[68]=4
y[69]=3
y[70]=8
y[71]=7
y[72]=5
y[73]=5
y[74]=6
y[75]=0
y[76]=9
y[77]=2
y[78]=2
y[79]=10
y[80]=10
y[81]=8
y[82]=4
y[83]=10
y[84]=5
y[85]=1
y[86]=9
y[87]=2
y[88]=5
y[89]=6
y[90]=8
y[91]=5
y[92]=7
y[93]=7
y[94]=5
y[95]=7
y[96]=2
y[97]=5
y[98]=3
y[99]=0
y[100]=10
y[101]=4
y[102]=6
y[103]=4
y[104]=5
y[105]=4
y[106]=6
y[107]=9
y[108]=8
y[109]=0
y[110]=2
y[111]=8
y[112]=5
y[113]=3
y[114]=5
y[115]=9
y[116]=7
y[117]=9
y[118]=8
y[119]=2
y[120]=6
y[121]=8
y[122]=8
y[123]=9
y[124]=9
y[125]=9
y[126]=4
y[127]=1
y[128]=0
y[129]=0
y[130]=10
y[131]=1
y[132]=1
y[133]=1
y[134]=9
y[135]=4
y[136]=6
y[137]=0
y[138]=4
y[139]=0
y[140]=0
y[141]=10
y[142]=2
y[143]=4
y[144]=5
y[145]=10
y[146]=9
y[147]=6
y[148]=8
y[149]=1
y[150]=3
y[151]=2
y[152]=9
y[153]=10
y[154]=7
y[155]=8
y[156]=0
y[157]=3
y[158]=5
y[159]=1
y[160]=7
y[161]=10
y[162]=3
y[163]=9
y[164]=5
y[165]=10
y[166]=4
y[167]=7
y[168]=4
y[169]=6
y[170]=10
y[171]=0
y[172]=6
y[173]=1
y[174]=7
y[175]=1
y[176]=8
y[177]=5
y[178]=3
y[179]=10
y[180]=4
y[181]=2
y[182]=7
y[183]=0
y[184]=9
y[185]=2
y[186]=4
y[187]=8
y[188]=7
y[189]=2
y[190]=4
y[191]=6
y[192]=4
y[193]=7
y[194]=7
y[195]=9
y[196]=3
y[197]=6
y[198]=6
y[199]=2
y[200]=8
y[201]=3
y[202]=9
y[203]=4
y[204]=3
y[205]=2
y[206]=1
y[207]=9
y[208]=10
y[209]=10
y[210]=3
y[211]=7
y[212]=1
y[213]=6
y[214]=1
y[215]=4
y[216]=5
y[217]=4
y[218]=5
y[219]=5
y[220]=2
y[221]=1
y[222]=1
y[223]=6
y[224]=4
y[225]=2
y[226]=7
y[227]=0
y[228]=4
y[229]=6
y[230]=8
y[231]=9
y[232]=2
y[233]=6
y[234]=8
y[235]=4
y[236]=0
y[237]=10
y[238]=3
y[239]=7
y[240]=3
y[241]=0
y[242]=6
y[243]=1
y[244]=0
y[245]=3
y[246]=10
y[247]=10
y[248]=1
y[249]=10
y[250]=9
y[251]=1
y[252]=1
y[253]=2
y[254]=8
y[255]=3
y[256]=5
y[257]=0
y[258]=6
y[259]=4
y[260]=5
y[261]=1
y[262]=10
y[263]=8
y[264]=2
y[265]=10
y[266]=9
y[267]=5
y[268]=1
y[269]=4
y[270]=8
y[271]=3
y[272]=8
y[273]=7
y[274]=7
y[275]=6
y[276]=8
y[277]=5
y[278]=9
y[279]=7
y[280]=10
y[281]=9
y[282]=10
y[283]=3
y[284]=0
y[285]=4
y[286]=3
y[287]=6
y[288]=3
y[289]=5
y[290]=4
y[291]=9
y[292]=9
y[293]=3
y[294]=4
y[295]=8
y[296]=7
y[297]=7
y[298]=10
y[299]=4
y[300]=7
y[301]=4
y[302]=8
y[303]=4
y[304]=9
y[305]=2
y[306]=3
y[307]=6
y[308]=3
y[309]=9
y[310]=8
y[311]=9
