data/solutions/recovery/wellformed/intermediate/binding/wellformed_intermediate_instance41/9.log

Log started (V12.6.3.0) Fri Apr 20 18:08:07 2018

New value for default parallel thread count: 1

Problem '/tmp/tmpjCJ6ru.pyomo.lp' read.
Read time = 0.14 sec. (12.47 ticks)

Problem name         : /tmp/tmpjCJ6ru.pyomo.lp
Objective sense      : Minimize
Variables            :    3758  [Nneg: 1,  Binary: 3744,  General Integer: 13]
Objective nonzeros   :       1
Linear constraints   :     650  [Less: 324,  Equal: 326]
  Nonzeros           :  923941
  RHS nonzeros       :     313

Variables            : Min LB: 0.000000         Max UB: 1.000000       
Objective nonzeros   : Min   : 1.000000         Max   : 1.000000       
Linear constraints   :
  Nonzeros           : Min   : 1.000000         Max   : 19298.00       
  RHS nonzeros       : Min   : 1.000000         Max   : 1.000000       
Tried aggregator 2 times.
MIP Presolve eliminated 587 rows and 3295 columns.
Aggregator did 11 substitutions.
Reduced MIP has 52 rows, 452 columns, and 913 nonzeros.
Reduced MIP has 451 binaries, 1 generals, 0 SOSs, and 0 indicators.
Presolve time = 0.04 sec. (57.11 ticks)
Found incumbent of value 601839.000000 after 0.07 sec. (78.62 ticks)
Probing time = 0.00 sec. (0.47 ticks)
Tried aggregator 1 time.
Reduced MIP has 52 rows, 452 columns, and 913 nonzeros.
Reduced MIP has 451 binaries, 1 generals, 0 SOSs, and 0 indicators.
Presolve time = 0.00 sec. (0.72 ticks)
Probing time = 0.00 sec. (0.47 ticks)
Clique table members: 41.
MIP emphasis: balance optimality and feasibility.
MIP search method: dynamic search.
Parallel mode: none, using 1 thread.
Root relaxation solution time = 0.00 sec. (0.84 ticks)

        Nodes                                         Cuts/
   Node  Left     Objective  IInf  Best Integer    Best Bound    ItCnt     Gap

*     0+    0                       601839.0000   250972.0000            58.30%
      0     0   263033.5455    20   601839.0000   263033.5455       72   56.30%
*     0+    0                       281652.0000   263033.5455             6.61%
      0     0   263034.0000    20   281652.0000      Fract: 5       94    6.61%
*     0+    0                       274078.0000   263034.0000             4.03%
      0     0   263034.0000    26   274078.0000      Cuts: 23      136    4.03%
*     0+    0                       268828.0000   263034.0000             2.16%
*     0+    0                       267487.0000   263034.0000             1.66%
*     0+    0                       266499.0000   263034.0000             1.30%
*     0+    0                       266109.0000   263034.0000             1.16%
*     0+    0                       265945.0000   263034.0000             1.09%
*     0+    0                       265689.0000   263034.0000             1.00%
      0     2   263034.0000    18   265689.0000   263034.0000      136    1.00%
Elapsed time = 0.11 sec. (107.80 ticks, tree = 0.01 MB, solutions = 9)
*    40+   38                       264460.0000   263034.0000             0.54%
*    80+   71                       264379.0000   263034.0000             0.51%
*    87    75      integral     0   263990.0000   263034.0000      488    0.36%
*   130+   95                       263799.0000   263034.0000             0.29%
*   230+  185                       263748.0000   263034.0000             0.27%
*   250+  205                       263724.0000   263034.0000             0.26%
*   339   285      integral     0   263687.0000   263034.0000     1443    0.25%
*   360+  303                       263635.0000   263034.0000             0.23%
*   460+  398                       263604.0000   263034.0000             0.22%
*   460+  398                       263599.0000   263034.0000             0.21%
*   460+  396                       263562.0000   263034.0000             0.20%
*   460+  396                       263549.0000   263034.0000             0.20%
*   460+  396                       263526.0000   263034.0000             0.19%
*   460+  396                       263516.0000   263034.0000             0.18%
*   571+  499                       263434.0000   263034.0000             0.15%
*   571+  492                       263375.0000   263034.0000             0.13%
    597   507   263133.0000    17   263375.0000   263034.0000     2533    0.13%
    598   507   263133.0000    16   263375.0000   263034.0000     2539    0.13%
    599   508   263133.0000    18   263375.0000   263034.0000     2545    0.13%
    600   509   263133.0000    17   263375.0000   263034.0000     2547    0.13%
    601   509   263133.0000    17   263375.0000   263034.0000     2555    0.13%
    602   509   263133.0000    18   263375.0000   263034.0000     2568    0.13%
    603   508   263138.2222    17   263375.0000   263034.0000     2574    0.13%
    604   509   263133.0000    17   263375.0000   263034.0000     2577    0.13%
    605   510   263133.0000    17   263375.0000   263034.0000     2588    0.13%
   1473   753   263080.0000    16   263375.0000   263034.0000     5955    0.13%
Elapsed time = 1.06 sec. (1078.88 ticks, tree = 0.32 MB, solutions = 25)
  10630  8689   263100.0000    13   263375.0000   263034.0000    29036    0.13%
  10631  8690   263100.0000    14   263375.0000   263034.0000    29037    0.13%
  10632  8691   263100.0000    14   263375.0000   263034.0000    29038    0.13%
  10633  8692   263100.0000    14   263375.0000   263034.0000    29039    0.13%
  10634  8693   263100.0000    14   263375.0000   263034.0000    29040    0.13%
  10635  8694   263100.0000    14   263375.0000   263034.0000    29041    0.13%
  10636  8695   263100.0000    14   263375.0000   263034.0000    29042    0.13%
  10637  8696   263100.0000    13   263375.0000   263034.0000    29044    0.13%
  10638  8697   263100.0000    13   263375.0000   263034.0000    29045    0.13%
  10639  8698   263100.0000    13   263375.0000   263034.0000    29046    0.13%
Elapsed time = 1.95 sec. (2033.09 ticks, tree = 3.85 MB, solutions = 25)
  24039 20104   263063.6000    18   263375.0000   263034.0000    61507    0.13%
  24040 20105   263063.6000    19   263375.0000   263034.0000    61509    0.13%
  24041 20106   263063.6000    19   263375.0000   263034.0000    61512    0.13%
  24042 20107   263063.6000    18   263375.0000   263034.0000    61514    0.13%
  24043 20108   263063.6000    19   263375.0000   263034.0000    61517    0.13%
  24044 20109   263063.6000    18   263375.0000   263034.0000    61518    0.13%
  24045 20110   263063.6000    19   263375.0000   263034.0000    61519    0.13%
  24046 20111   263063.6000    19   263375.0000   263034.0000    61520    0.13%
  24047 20112   263063.6000    18   263375.0000   263034.0000    61522    0.13%
  24048 20113   263063.6000    19   263375.0000   263034.0000    61528    0.13%
Elapsed time = 2.84 sec. (2987.50 ticks, tree = 8.81 MB, solutions = 25)
  37234 31757   263257.2500    13   263375.0000   263034.0000    92868    0.13%
  37235 31758   263257.2500    14   263375.0000   263034.0000    92869    0.13%
  37236 31757        cutoff         263375.0000   263034.0000    92874    0.13%
  37237 31758   263257.2500    15   263375.0000   263034.0000    92880    0.13%
  37238 31759   263257.2500    15   263375.0000   263034.0000    92881    0.13%
  37239 31760   263257.2500    15   263375.0000   263034.0000    92882    0.13%
  37240 31761   263257.2500    15   263375.0000   263034.0000    92884    0.13%
  37241 31762   263356.4286    13   263375.0000   263034.0000    92885    0.13%
  37242 31763   263356.4286    13   263375.0000   263034.0000    92886    0.13%
  37243 31764   263356.4286    13   263375.0000   263034.0000    92895    0.13%
Elapsed time = 3.74 sec. (3941.80 ticks, tree = 13.39 MB, solutions = 25)
* 44270 31266      integral     0   263290.0000   263034.0000   110522    0.10%
  46912 33165   263098.6000    18   263290.0000   263034.0000   118020    0.10%
  46913 33166   263098.6000    18   263290.0000   263034.0000   118022    0.10%
  46914 33167   263180.7500    14   263290.0000   263034.0000   118028    0.10%
  46915 33168   263180.7500    13   263290.0000   263034.0000   118029    0.10%
  46916 33169   263180.7500    13   263290.0000   263034.0000   118030    0.10%
  46917 33170   263180.7500    14   263290.0000   263034.0000   118034    0.10%
  46918 33171   263262.5714    11   263290.0000   263034.0000   118037    0.10%
  46919 33172   263262.5714    11   263290.0000   263034.0000   118038    0.10%
  46920 33173   263262.5714    12   263290.0000   263034.0000   118040    0.10%
  46921 33174   263262.5714    13   263290.0000   263034.0000   118041    0.10%
Elapsed time = 4.74 sec. (4896.21 ticks, tree = 14.83 MB, solutions = 26)
  60148 44935   263165.0000    13   263290.0000   263034.0000   149040    0.10%
  60149 44936   263165.0000    12   263290.0000   263034.0000   149042    0.10%
  60150 44937   263165.0000    13   263290.0000   263034.0000   149044    0.10%
  60151 44938   263165.0000    12   263290.0000   263034.0000   149046    0.10%
  60152 44939   263165.0000    10   263290.0000   263034.0000   149049    0.10%
  60153 44940   263165.0000    12   263290.0000   263034.0000   149051    0.10%
  60154 44941   263165.0000    12   263290.0000   263034.0000   149054    0.10%
  60155 44942   263165.0000    13   263290.0000   263034.0000   149055    0.10%
  60156 44943   263165.0000    13   263290.0000   263034.0000   149057    0.10%
  60157 44944   263165.0000    13   263290.0000   263034.0000   149059    0.10%
Elapsed time = 5.65 sec. (5850.43 ticks, tree = 19.50 MB, solutions = 26)
  73225 56065        cutoff         263290.0000   263034.0000   179962    0.10%
  73226 56066   263034.0000    17   263290.0000   263034.0000   179968    0.10%
  73227 56066   263043.4444    17   263290.0000   263034.0000   179980    0.10%
  73228 56065        cutoff         263290.0000   263034.0000   179982    0.10%
  73229 56066   263034.0000    18   263290.0000   263034.0000   179991    0.10%
  73230 56067   263034.0000    18   263290.0000   263034.0000   179992    0.10%
  73231 56068   263034.0000    17   263290.0000   263034.0000   179994    0.10%
  73232 56069   263058.7000    17   263290.0000   263034.0000   179995    0.10%
  73233 56070   263058.7000    17   263290.0000   263034.0000   179996    0.10%
  73234 56071   263058.7000    18   263290.0000   263034.0000   179997    0.10%
Elapsed time = 6.56 sec. (6805.78 ticks, tree = 24.06 MB, solutions = 26)
  85053 65935   263188.0000    10   263290.0000   263034.0000   206376    0.10%
  85054 65936   263188.0000    10   263290.0000   263034.0000   206377    0.10%
  85055 65937   263188.0000    10   263290.0000   263034.0000   206379    0.10%
  85056 65938   263188.0000    10   263290.0000   263034.0000   206383    0.10%
  85057 65939   263188.0000    10   263290.0000   263034.0000   206384    0.10%
  85058 65940   263188.0000    10   263290.0000   263034.0000   206385    0.10%
  85059 65941   263188.0000    10   263290.0000   263034.0000   206386    0.10%
  85060 65942   263188.0000     9   263290.0000   263034.0000   206387    0.10%
  85061 65943   263188.0000    10   263290.0000   263034.0000   206389    0.10%
  85062 65944   263188.0000    10   263290.0000   263034.0000   206391    0.10%
Elapsed time = 7.46 sec. (7760.04 ticks, tree = 30.00 MB, solutions = 26)
  98415 77594   263234.7143    13   263290.0000   263034.0000   236115    0.10%
  98416 77593        cutoff         263290.0000   263034.0000   236117    0.10%
  98417 77594   263141.3000    19   263290.0000   263034.0000   236124    0.10%
  98418 77595   263141.3000    19   263290.0000   263034.0000   236125    0.10%
  98419 77596   263141.3000    18   263290.0000   263034.0000   236126    0.10%
  98420 77597   263256.5000    16   263290.0000   263034.0000   236134    0.10%
  98421 77598   263256.5000    14   263290.0000   263034.0000   236135    0.10%
  98422 77599   263256.5000    15   263290.0000   263034.0000   236136    0.10%
  98423 77600   263256.5000    15   263290.0000   263034.0000   236138    0.10%
  98424 77601   263256.5000    15   263290.0000   263034.0000   236139    0.10%
Elapsed time = 8.37 sec. (8714.35 ticks, tree = 34.65 MB, solutions = 26)
 111512 89079   263049.3000    19   263290.0000   263034.0000   266305    0.10%
 111513 89080   263049.3000    18   263290.0000   263034.0000   266308    0.10%
 111514 89081   263049.3000    18   263290.0000   263034.0000   266309    0.10%
 111515 89082   263049.3000    18   263290.0000   263034.0000   266312    0.10%
 111516 89083   263049.3000    19   263290.0000   263034.0000   266316    0.10%
 111517 89084   263049.3000    19   263290.0000   263034.0000   266317    0.10%
 111518 89085   263049.3000    19   263290.0000   263034.0000   266318    0.10%
 111519 89086   263049.3000    19   263290.0000   263034.0000   266319    0.10%
 111520 89087   263049.3000    19   263290.0000   263034.0000   266320    0.10%
 140912 112184   263090.0000    13   263290.0000   263034.0000   336568    0.10%
Elapsed time = 12.06 sec. (12529.05 ticks, tree = 48.79 MB, solutions = 26)
 184884 149436        cutoff         263290.0000   263034.0000   435756    0.10%
 184885 149435        cutoff         263290.0000   263034.0000   435760    0.10%
 184886 149436   263034.0000    17   263290.0000   263034.0000   435771    0.10%
 184887 149437   263034.0000    17   263290.0000   263034.0000   435772    0.10%
 184888 149438   263034.0000    17   263290.0000   263034.0000   435773    0.10%
 184889 149439   263034.0000    18   263290.0000   263034.0000   435774    0.10%
 184890 149440   263034.0000    17   263290.0000   263034.0000   435778    0.10%
 184891 149441   263034.0000    17   263290.0000   263034.0000   435781    0.10%
 184892 149442   263034.0000    16   263290.0000   263034.0000   435782    0.10%
 184893 149443   263034.0000    18   263290.0000   263034.0000   435786    0.10%
Elapsed time = 15.73 sec. (16344.38 ticks, tree = 65.48 MB, solutions = 26)
*211773+151430                       263262.0000   263034.0000             0.09%
*211803+96880                       263162.0000   263034.0000             0.05%
 234163 116012   263096.3333    18   263162.0000   263034.0000   550496    0.05%
 234164 116013   263096.3333    18   263162.0000   263034.0000   550497    0.05%
 234165 116014   263096.3333    17   263162.0000   263034.0000   550498    0.05%
 234166 116013        cutoff         263162.0000   263034.0000   550504    0.05%
 234167 116014   263096.3333    18   263162.0000   263034.0000   550505    0.05%
 234168 116015   263096.3333    19   263162.0000   263034.0000   550507    0.05%
 234169 116014        cutoff         263162.0000   263034.0000   550513    0.05%
 234170 116015   263096.3333    19   263162.0000   263034.0000   550514    0.05%
 234171 116016   263096.3333    17   263162.0000   263034.0000   550515    0.05%
 234172 116017   263103.0000    16   263162.0000   263034.0000   550516    0.05%
Elapsed time = 19.39 sec. (20160.05 ticks, tree = 52.66 MB, solutions = 28)
 280300 153844   263071.4444    15   263162.0000   263034.0000   654304    0.05%
 280301 153845   263071.4444    14   263162.0000   263034.0000   654306    0.05%
 280302 153846   263071.4444    15   263162.0000   263034.0000   654308    0.05%
 280303 153847   263071.4444    14   263162.0000   263034.0000   654310    0.05%
 280304 153848   263071.4444    15   263162.0000   263034.0000   654311    0.05%
 280305 153849   263071.4444    15   263162.0000   263034.0000   654312    0.05%
 280306 153850   263071.4444    18   263162.0000   263034.0000   654319    0.05%
 280307 153851   263071.4444    18   263162.0000   263034.0000   654320    0.05%
 280308 153852   263071.4444    16   263162.0000   263034.0000   654322    0.05%
 280309 153853   263071.4444    16   263162.0000   263034.0000   654326    0.05%
Elapsed time = 23.07 sec. (23975.62 ticks, tree = 67.64 MB, solutions = 28)
 315900 176170        cutoff         263162.0000   263034.0000   740823    0.05%
 315901 176171   263034.0000    17   263162.0000   263034.0000   740834    0.05%
 315902 176172   263034.0000    17   263162.0000   263034.0000   740838    0.05%
 315903 176173   263034.0000    18   263162.0000   263034.0000   740840    0.05%
 315904 176174   263034.0000    18   263162.0000   263034.0000   740844    0.05%
 315905 176175   263034.0000    18   263162.0000   263034.0000   740846    0.05%
 315906 176176   263147.0000    14   263162.0000   263034.0000   740863    0.05%
 315907 176177   263147.0000    14   263162.0000   263034.0000   740866    0.05%
 315908 176178   263147.0000    15   263162.0000   263034.0000   740868    0.05%
 315909 176177        cutoff         263162.0000   263034.0000   740869    0.05%
Elapsed time = 26.79 sec. (27791.59 ticks, tree = 76.73 MB, solutions = 28)
 354350 200537   263114.7778    15   263162.0000   263034.0000   830445    0.05%
 354351 200538   263114.7778    16   263162.0000   263034.0000   830446    0.05%
 354352 200539   263114.7778    16   263162.0000   263034.0000   830448    0.05%
 354353 200538    infeasible         263162.0000   263034.0000   830448    0.05%
 354354 200537        cutoff         263162.0000   263034.0000   830456    0.05%
 354355 200536    infeasible         263162.0000   263034.0000   830456    0.05%
 354356 200535    infeasible         263162.0000   263034.0000   830456    0.05%
 354357 200536   263034.0000    16   263162.0000   263034.0000   830466    0.05%
 354358 200537   263034.0000    15   263162.0000   263034.0000   830474    0.05%
 354359 200538   263034.0000    16   263162.0000   263034.0000   830476    0.05%
Elapsed time = 30.49 sec. (31608.98 ticks, tree = 87.85 MB, solutions = 28)
 399693 235777   263076.6161    19   263162.0000   263034.0000   939556    0.05%
 399694 235778   263076.6161    19   263162.0000   263034.0000   939557    0.05%
 399695 235779   263076.6161    19   263162.0000   263034.0000   939558    0.05%
 399696 235780   263076.6843    17   263162.0000   263034.0000   939562    0.05%
 399697 235781   263076.6843    17   263162.0000   263034.0000   939564    0.05%
 399698 235782   263076.6843    17   263162.0000   263034.0000   939565    0.05%
 399699 235783   263076.6843    17   263162.0000   263034.0000   939566    0.05%
 399700 235782        cutoff         263162.0000   263034.0000   939573    0.05%
 399701 235781        cutoff         263162.0000   263034.0000   939576    0.05%
 399702 235782   263034.0000    17   263162.0000   263034.0000   939577    0.05%
Elapsed time = 34.15 sec. (35424.27 ticks, tree = 103.93 MB, solutions = 28)
*425553+215064                       263142.0000   263034.0000             0.04%
 441144 227470   263116.0000    14   263142.0000   263034.0000  1038798    0.04%
 441145 227471   263116.0000    14   263142.0000   263034.0000  1038801    0.04%
 441146 227472   263116.0000    14   263142.0000   263034.0000  1038803    0.04%
 441147 227473   263116.0000    15   263142.0000   263034.0000  1038805    0.04%
 441148 227474   263116.0000    14   263142.0000   263034.0000  1038807    0.04%
 441149 227475   263116.0000    15   263142.0000   263034.0000  1038809    0.04%
 441150 227476   263116.0000    15   263142.0000   263034.0000  1038810    0.04%
 441151 227477   263116.0000    15   263142.0000   263034.0000  1038812    0.04%
 441152 227478   263116.0000    14   263142.0000   263034.0000  1038814    0.04%
 441153 227479   263116.0000    15   263142.0000   263034.0000  1038815    0.04%
Elapsed time = 37.87 sec. (39239.46 ticks, tree = 100.68 MB, solutions = 29)
 484774 262438   263110.0000    15   263142.0000   263034.0000  1140116    0.04%
 484775 262439   263110.0000    16   263142.0000   263034.0000  1140118    0.04%
 484776 262438        cutoff         263142.0000   263034.0000  1140119    0.04%
 484777 262437        cutoff         263142.0000   263034.0000  1140121    0.04%
 484778 262436        cutoff         263142.0000   263034.0000  1140125    0.04%
 484779 262437   263067.8889    18   263142.0000   263034.0000  1140147    0.04%
 484780 262438   263067.8889    18   263142.0000   263034.0000  1140148    0.04%
 484781 262439   263067.8889    17   263142.0000   263034.0000  1140150    0.04%
 484782 262440   263067.8889    17   263142.0000   263034.0000  1140151    0.04%
 484783 262441   263067.8889    17   263142.0000   263034.0000  1140152    0.04%
Elapsed time = 41.57 sec. (43055.80 ticks, tree = 114.77 MB, solutions = 29)
 524398 290821   263110.3333    16   263142.0000   263034.0000  1238035    0.04%
 524399 290822   263110.3333    15   263142.0000   263034.0000  1238038    0.04%
 524400 290823   263110.3333    16   263142.0000   263034.0000  1238040    0.04%
 524401 290824   263110.3333    16   263142.0000   263034.0000  1238041    0.04%
 524402 290825   263110.3333    16   263142.0000   263034.0000  1238044    0.04%
 524403 290826   263110.3333    17   263142.0000   263034.0000  1238046    0.04%
 524404 290825        cutoff         263142.0000   263034.0000  1238049    0.04%
 524405 290826   263110.3333    16   263142.0000   263034.0000  1238051    0.04%
 524406 290826   263110.3333    17   263142.0000   263034.0000  1238052    0.04%
 524407 290826   263131.1250    15   263142.0000   263034.0000  1238055    0.04%
Elapsed time = 45.26 sec. (46871.55 ticks, tree = 128.11 MB, solutions = 29)
*556773+250932                       263122.0000   263034.0000             0.03%
 563373 256286   263071.0000    18   263122.0000   263034.0000  1335011    0.03%
 563374 256287   263071.0000    19   263122.0000   263034.0000  1335013    0.03%
 563375 256288   263071.0000    18   263122.0000   263034.0000  1335015    0.03%
 563376 256289   263071.0000    16   263122.0000   263034.0000  1335016    0.03%
 563377 256290   263071.0000    16   263122.0000   263034.0000  1335017    0.03%
 563378 256291   263071.0000    16   263122.0000   263034.0000  1335018    0.03%
 563379 256292   263071.0000    16   263122.0000   263034.0000  1335019    0.03%
 563380 256293   263071.0000    16   263122.0000   263034.0000  1335020    0.03%
 563381 256294   263071.0000    16   263122.0000   263034.0000  1335021    0.03%
 563382 256295   263071.0000    16   263122.0000   263034.0000  1335022    0.03%
Elapsed time = 48.95 sec. (50687.03 ticks, tree = 113.74 MB, solutions = 30)
 597112 279974   263034.0000    16   263122.0000   263034.0000  1421350    0.03%
 597113 279975   263034.0000    16   263122.0000   263034.0000  1421352    0.03%
 597114 279976   263034.0000    16   263122.0000   263034.0000  1421353    0.03%
 597115 279975    infeasible         263122.0000   263034.0000  1421353    0.03%
 597116 279976   263034.0000    18   263122.0000   263034.0000  1421355    0.03%
 597117 279977   263034.0000    18   263122.0000   263034.0000  1421356    0.03%
 597118 279978   263110.2000    18   263122.0000   263034.0000  1421360    0.03%
 597119 279979   263110.2000    18   263122.0000   263034.0000  1421361    0.03%
 597120 279978        cutoff         263122.0000   263034.0000  1421362    0.03%
 597121 279977    infeasible         263122.0000   263034.0000  1421362    0.03%
Elapsed time = 52.88 sec. (54503.45 ticks, tree = 123.39 MB, solutions = 30)
 631055 302603   263034.0000    18   263122.0000   263034.0000  1511626    0.03%
 631056 302604   263062.6667    17   263122.0000   263034.0000  1511629    0.03%
 631057 302603    infeasible         263122.0000   263034.0000  1511629    0.03%
 631058 302604   263077.0000    14   263122.0000   263034.0000  1511631    0.03%
 631059 302605   263077.0000    14   263122.0000   263034.0000  1511633    0.03%
 631060 302606   263077.0000    13   263122.0000   263034.0000  1511635    0.03%
 631061 302607   263077.0000    13   263122.0000   263034.0000  1511639    0.03%
 631062 302608   263077.0000    13   263122.0000   263034.0000  1511645    0.03%
 631063 302609   263077.0000    14   263122.0000   263034.0000  1511646    0.03%
 631064 302610   263077.0000    14   263122.0000   263034.0000  1511647    0.03%
Elapsed time = 56.74 sec. (58318.89 ticks, tree = 132.72 MB, solutions = 30)
 670804 332459   263106.0000    14   263122.0000   263034.0000  1606217    0.03%
 670805 332460   263106.0000    12   263122.0000   263034.0000  1606219    0.03%
 670806 332461   263106.0000    14   263122.0000   263034.0000  1606221    0.03%
 670807 332462   263106.0000    13   263122.0000   263034.0000  1606223    0.03%
 670808 332463   263106.0000    14   263122.0000   263034.0000  1606225    0.03%
 670809 332464   263106.0000    15   263122.0000   263034.0000  1606227    0.03%
 670810 332465   263107.0000    13   263122.0000   263034.0000  1606229    0.03%
 670811 332466   263107.0000    13   263122.0000   263034.0000  1606231    0.03%
 670812 332467   263107.0000    13   263122.0000   263034.0000  1606233    0.03%
 670813 332468   263107.0000    13   263122.0000   263034.0000  1606239    0.03%
Elapsed time = 60.41 sec. (62134.27 ticks, tree = 146.66 MB, solutions = 30)
 717877 366785   263109.5000    13   263122.0000   263034.0000  1709824    0.03%
 717878 366786   263109.5000    12   263122.0000   263034.0000  1709826    0.03%
 717879 366787   263109.5000    12   263122.0000   263034.0000  1709829    0.03%
 717880 366788   263109.5000    12   263122.0000   263034.0000  1709831    0.03%
 717881 366788   263109.5000    13   263122.0000   263034.0000  1709836    0.03%
 717882 366787        cutoff         263122.0000   263034.0000  1709837    0.03%
 717883 366786        cutoff         263122.0000   263034.0000  1709841    0.03%
 717884 366787   263034.0000    16   263122.0000   263034.0000  1709851    0.03%
 717885 366788   263109.5000    11   263122.0000   263034.0000  1709859    0.03%
 717886 366789   263109.5000    12   263122.0000   263034.0000  1709860    0.03%
Elapsed time = 63.98 sec. (65949.67 ticks, tree = 159.55 MB, solutions = 30)
 764311 396411   263077.0000    10   263122.0000   263034.0000  1815874    0.03%
 764312 396412   263077.0000    10   263122.0000   263034.0000  1815877    0.03%
 764313 396411        cutoff         263122.0000   263034.0000  1815880    0.03%
 764314 396411   263085.1667     9   263122.0000   263034.0000  1815883    0.03%
 764315 396412   263086.0000     8   263122.0000   263034.0000  1815884    0.03%
 764316 396413   263086.0000     9   263122.0000   263034.0000  1815890    0.03%
 764317 396414   263086.0000     8   263122.0000   263034.0000  1815893    0.03%
 764318 396415   263086.0000     8   263122.0000   263034.0000  1815896    0.03%
 764319 396414        cutoff         263122.0000   263034.0000  1815904    0.03%
 764320 396415   263086.0000     8   263122.0000   263034.0000  1815907    0.03%
Elapsed time = 67.61 sec. (69764.98 ticks, tree = 173.91 MB, solutions = 30)
 804101 417468   263114.0000     9   263122.0000   263034.0000  1915670    0.03%
 804102 417469   263114.0000     9   263122.0000   263034.0000  1915672    0.03%
 804103 417470   263114.0000     9   263122.0000   263034.0000  1915673    0.03%
 804104 417469        cutoff         263122.0000   263034.0000  1915675    0.03%
 804105 417470   263114.0000    10   263122.0000   263034.0000  1915682    0.03%
 804106 417471   263114.0000     9   263122.0000   263034.0000  1915685    0.03%
 804107 417472   263114.0000     9   263122.0000   263034.0000  1915687    0.03%
 804108 417471        cutoff         263122.0000   263034.0000  1915691    0.03%
 804109 417472   263114.0000     9   263122.0000   263034.0000  1915692    0.03%
 804110 417473   263114.0000     9   263122.0000   263034.0000  1915693    0.03%
Elapsed time = 71.40 sec. (73580.41 ticks, tree = 182.26 MB, solutions = 30)
 845033 441159   263114.0000    11   263122.0000   263034.0000  2014479    0.03%
 845034 441160   263114.0000    10   263122.0000   263034.0000  2014482    0.03%
 845035 441161   263114.0000     9   263122.0000   263034.0000  2014483    0.03%
 845036 441162   263114.0000    13   263122.0000   263034.0000  2014491    0.03%
 845037 441163   263114.0000    12   263122.0000   263034.0000  2014493    0.03%
 845038 441162        cutoff         263122.0000   263034.0000  2014496    0.03%
 845039 441163   263114.0000    13   263122.0000   263034.0000  2014500    0.03%
 845040 441164   263114.0000    12   263122.0000   263034.0000  2014503    0.03%
 845041 441165   263114.0000    10   263122.0000   263034.0000  2014504    0.03%
 845042 441166   263114.0000    10   263122.0000   263034.0000  2014507    0.03%
Elapsed time = 75.25 sec. (77395.73 ticks, tree = 191.70 MB, solutions = 30)
 893426 475387   263116.0000    12   263122.0000   263034.0000  2120281    0.03%
 893427 475388   263116.0000    12   263122.0000   263034.0000  2120282    0.03%
 893428 475389   263116.0000    12   263122.0000   263034.0000  2120283    0.03%
 893429 475390   263116.0000    12   263122.0000   263034.0000  2120285    0.03%
 893430 475391   263116.0000    12   263122.0000   263034.0000  2120286    0.03%
 893431 475392   263116.0000    12   263122.0000   263034.0000  2120288    0.03%
 893432 475393   263116.0000    13   263122.0000   263034.0000  2120292    0.03%
 893433 475394   263116.0000    11   263122.0000   263034.0000  2120294    0.03%
 893434 475395   263116.0000    12   263122.0000   263034.0000  2120296    0.03%
 893435 475396   263116.0000    11   263122.0000   263034.0000  2120299    0.03%
Elapsed time = 78.93 sec. (81211.05 ticks, tree = 207.80 MB, solutions = 30)
 946240 514139   263116.0000    12   263122.0000   263034.0000  2224850    0.03%
 946241 514140   263116.0000    11   263122.0000   263034.0000  2224854    0.03%
 946242 514141   263116.0000    11   263122.0000   263034.0000  2224855    0.03%
 946243 514142   263116.0000    11   263122.0000   263034.0000  2224856    0.03%
 946244 514143   263116.0000    12   263122.0000   263034.0000  2224859    0.03%
 946245 514144   263116.0000    10   263122.0000   263034.0000  2224868    0.03%
 946246 514144   263116.0000    11   263122.0000   263034.0000  2224874    0.03%
 946247 514143        cutoff         263122.0000   263034.0000  2224876    0.03%
 946248 514144   263034.0000    15   263122.0000   263034.0000  2224884    0.03%
 946249 514145   263034.0000    15   263122.0000   263034.0000  2224886    0.03%
Elapsed time = 82.44 sec. (85026.99 ticks, tree = 222.29 MB, solutions = 30)
 994257 549703   263086.1250    13   263122.0000   263034.0000  2318415    0.03%
 994258 549704   263086.1250    13   263122.0000   263034.0000  2318416    0.03%
 994259 549705   263086.1250    12   263122.0000   263034.0000  2318418    0.03%
 994260 549706   263086.1250    12   263122.0000   263034.0000  2318419    0.03%
 994261 549707   263086.1250    12   263122.0000   263034.0000  2318420    0.03%
 994262 549708   263086.1250    13   263122.0000   263034.0000  2318422    0.03%
 994263 549709   263086.1250    12   263122.0000   263034.0000  2318423    0.03%
 994264 549710   263086.1250    12   263122.0000   263034.0000  2318429    0.03%
 994265 549711   263086.1250    13   263122.0000   263034.0000  2318431    0.03%
 994266 549712   263086.1250    13   263122.0000   263034.0000  2318434    0.03%
Elapsed time = 85.99 sec. (88842.24 ticks, tree = 235.99 MB, solutions = 30)
 1047218 590637        cutoff         263122.0000   263034.0000  2419086    0.03%
 1047219 590636        cutoff         263122.0000   263034.0000  2419090    0.03%
 1047220 590637   263034.0000    16   263122.0000   263034.0000  2419092    0.03%
 1047221 590636        cutoff         263122.0000   263034.0000  2419095    0.03%
 1047222 590635        cutoff         263122.0000   263034.0000  2419098    0.03%
 1047223 590634    infeasible         263122.0000   263034.0000  2419098    0.03%
 1047224 590633    infeasible         263122.0000   263034.0000  2419098    0.03%
 1047225 590632    infeasible         263122.0000   263034.0000  2419098    0.03%
 1047226 590631    infeasible         263122.0000   263034.0000  2419098    0.03%
 1047227 590632   263074.5556    16   263122.0000   263034.0000  2419104    0.03%
Elapsed time = 89.81 sec. (92658.18 ticks, tree = 255.68 MB, solutions = 30)
*1050573+519317                       263116.0000   263034.0000             0.03%
 1074206 536418   263059.6667    15   263116.0000   263034.0000  2470493    0.03%
 1074207 536419   263060.7500    13   263116.0000   263034.0000  2470494    0.03%
 1074208 536420   263060.7500    13   263116.0000   263034.0000  2470496    0.03%
 1074209 536421   263060.7500    13   263116.0000   263034.0000  2470497    0.03%
 1074210 536422   263060.7500    13   263116.0000   263034.0000  2470499    0.03%
 1074211 536423   263060.7500    14   263116.0000   263034.0000  2470501    0.03%
 1074212 536424   263060.7500    13   263116.0000   263034.0000  2470503    0.03%
 1074213 536425   263060.7500    13   263116.0000   263034.0000  2470505    0.03%
 1074214 536426   263060.7500    13   263116.0000   263034.0000  2470506    0.03%
 1074215 536427   263060.7500    13   263116.0000   263034.0000  2470507    0.03%
Elapsed time = 93.45 sec. (96473.62 ticks, tree = 234.05 MB, solutions = 31)
*1095573+490731                       263112.0000   263034.0000             0.03%
 1124113 508741   263060.7500    13   263112.0000   263034.0000  2568119    0.03%
 1124114 508742   263060.7500    12   263112.0000   263034.0000  2568120    0.03%
 1124115 508743   263060.7500    13   263112.0000   263034.0000  2568123    0.03%
 1124116 508744   263060.7500    13   263112.0000   263034.0000  2568125    0.03%
 1124117 508745   263060.7500    13   263112.0000   263034.0000  2568126    0.03%
 1124118 508746   263060.7500    14   263112.0000   263034.0000  2568128    0.03%
 1124119 508747   263060.7500    14   263112.0000   263034.0000  2568129    0.03%
 1124120 508748   263060.7500    14   263112.0000   263034.0000  2568130    0.03%
 1124121 508749   263060.7500    14   263112.0000   263034.0000  2568131    0.03%
 1124122 508750   263060.7500    14   263112.0000   263034.0000  2568132    0.03%
Elapsed time = 97.09 sec. (100288.88 ticks, tree = 223.21 MB, solutions = 32)

Cover cuts applied:  2
Mixed integer rounding cuts applied:  1

Root node processing (before b&c):
  Real time             =    0.11 sec. (108.62 ticks)
Sequential b&c:
  Real time             =   99.89 sec. (103412.11 ticks)
                          ------------
Total (root+branch&cut) =  100.00 sec. (103520.73 ticks)

Solution pool: 32 solutions saved.

MIP - Time limit exceeded, integer feasible:  Objective =  2.6311200000e+05
Current MIP best bound =  2.6303400000e+05 (gap = 78, 0.03%)
Solution time =  100.00 sec.  Iterations = 2650605  Nodes = 1165896 (535597)
Deterministic time = 103520.75 ticks  (1035.20 ticks/sec)


Incumbent solution written to file '/tmp/tmpkKj1jj.cplex.sol'.
